(set-logic QF_S)
(set-option :produce-models true)

(declare-fun temp_1467_1493 () String)
(declare-fun temp2_1467_1478 () String)
(declare-fun temp2_1467_1483 () String)
(declare-fun temp1_1467_1483 () String)
(declare-fun s1483 () String)
(declare-fun temp1_1467_1488 () String)
(declare-fun s1493 () String)
(declare-fun temp_1467_1488 () String)
(declare-fun temp2_1467_1488 () String)
(declare-fun s1467 () String)
(declare-fun temp1_1467_1478 () String)
(declare-fun s1488 () String)
(declare-fun s1478 () String)

(assert (= (str.len temp1_1467_1478) (str.len s1478) ) )
(assert (not (= s1478 temp1_1467_1478) ) )
(assert (= (str.++ temp_1467_1493 s1493) s1467) )
(assert (= (str.len temp1_1467_1488) (str.len s1488) ) )
(assert (= (str.++ temp1_1467_1488 temp2_1467_1488) s1467) )
(assert (not (= s1488 temp1_1467_1488) ) )
(assert (= (str.++ temp1_1467_1478 temp2_1467_1478) s1467) )
(assert (= (str.++ s1488 temp_1467_1488) s1467) )
(assert (= (str.++ temp1_1467_1483 temp2_1467_1483) s1467) )
(assert (= (str.len temp2_1467_1483) (str.len s1483) ) )
(assert (not (= s1483 temp2_1467_1483) ) )


(check-sat)
(get-model)
